NAME 50_1_25_1
ROWS
 N COST
 L LK0
 L FK0
COLUMNS
 X0 COST 5.
 X0 LK0 -1.
 X0 FK0 0.
 X1 COST 5.
 X1 LK0 3.
 X1 FK0 1.
 X2 COST -3.
 X2 LK0 4.
 X2 FK0 0.
 X3 COST 10.
 X3 LK0 1.
 X3 FK0 0.
 X4 COST 5.
 X4 LK0 -4.
 X4 FK0 0.
 X5 COST 10.
 X5 LK0 1.
 X5 FK0 1.
 X6 COST 9.
 X6 LK0 4.
 X6 FK0 0.
 X7 COST 8.
 X7 LK0 -3.
 X7 FK0 0.
 X8 COST -6.
 X8 LK0 -5.
 X8 FK0 0.
 X9 COST -9.
 X9 LK0 2.
 X9 FK0 0.
 X10 COST 0.
 X10 LK0 1.
 X10 FK0 0.
 X11 COST 4.
 X11 LK0 3.
 X11 FK0 1.
 X12 COST 10.
 X12 LK0 4.
 X12 FK0 0.
 X13 COST 8.
 X13 LK0 0.
 X13 FK0 0.
 X14 COST 6.
 X14 LK0 -5.
 X14 FK0 0.
 X15 COST 1.
 X15 LK0 -3.
 X15 FK0 0.
 X16 COST -1.
 X16 LK0 3.
 X16 FK0 1.
 X17 COST 0.
 X17 LK0 -5.
 X17 FK0 0.
 X18 COST 1.
 X18 LK0 5.
 X18 FK0 1.
 X19 COST -6.
 X19 LK0 1.
 X19 FK0 1.
 X20 COST -7.
 X20 LK0 -5.
 X20 FK0 0.
 X21 COST -9.
 X21 LK0 -3.
 X21 FK0 0.
 X22 COST 1.
 X22 LK0 -1.
 X22 FK0 1.
 X23 COST -7.
 X23 LK0 1.
 X23 FK0 0.
 X24 COST -2.
 X24 LK0 1.
 X24 FK0 1.
 X25 COST -4.
 X25 LK0 2.
 X25 FK0 1.
 X26 COST -5.
 X26 LK0 3.
 X26 FK0 1.
 X27 COST 0.
 X27 LK0 2.
 X27 FK0 0.
 X28 COST 2.
 X28 LK0 3.
 X28 FK0 0.
 X29 COST 1.
 X29 LK0 0.
 X29 FK0 0.
 X30 COST 4.
 X30 LK0 5.
 X30 FK0 1.
 X31 COST 9.
 X31 LK0 2.
 X31 FK0 0.
 X32 COST 6.
 X32 LK0 1.
 X32 FK0 1.
 X33 COST -2.
 X33 LK0 4.
 X33 FK0 0.
 X34 COST 10.
 X34 LK0 4.
 X34 FK0 1.
 X35 COST 1.
 X35 LK0 3.
 X35 FK0 0.
 X36 COST -8.
 X36 LK0 0.
 X36 FK0 0.
 X37 COST 2.
 X37 LK0 5.
 X37 FK0 0.
 X38 COST -10.
 X38 LK0 4.
 X38 FK0 1.
 X39 COST 8.
 X39 LK0 1.
 X39 FK0 1.
 X40 COST -5.
 X40 LK0 3.
 X40 FK0 1.
 X41 COST 1.
 X41 LK0 5.
 X41 FK0 1.
 X42 COST -8.
 X42 LK0 -5.
 X42 FK0 1.
 X43 COST -6.
 X43 LK0 -4.
 X43 FK0 0.
 X44 COST -3.
 X44 LK0 -1.
 X44 FK0 0.
 X45 COST 4.
 X45 LK0 -1.
 X45 FK0 1.
 X46 COST -4.
 X46 LK0 -1.
 X46 FK0 0.
 X47 COST 10.
 X47 LK0 1.
 X47 FK0 1.
 X48 COST 7.
 X48 LK0 -5.
 X48 FK0 0.
 X49 COST -2.
 X49 LK0 -3.
 X49 FK0 0.
 Y0 COST 7.
 Y0 LK0 0.
 Y0 FK0 -4.
 Y1 COST 1.
 Y1 LK0 0.
 Y1 FK0 3.
 Y2 COST 8.
 Y2 LK0 0.
 Y2 FK0 2.
 Y3 COST 5.
 Y3 LK0 1.
 Y3 FK0 3.
 Y4 COST 5.
 Y4 LK0 1.
 Y4 FK0 5.
 Y5 COST 7.
 Y5 LK0 0.
 Y5 FK0 -3.
 Y6 COST 8.
 Y6 LK0 0.
 Y6 FK0 0.
 Y7 COST 8.
 Y7 LK0 1.
 Y7 FK0 3.
 Y8 COST 9.
 Y8 LK0 1.
 Y8 FK0 -5.
 Y9 COST 8.
 Y9 LK0 0.
 Y9 FK0 -5.
 Y10 COST 2.
 Y10 LK0 1.
 Y10 FK0 -5.
 Y11 COST 3.
 Y11 LK0 0.
 Y11 FK0 5.
 Y12 COST 5.
 Y12 LK0 0.
 Y12 FK0 3.
 Y13 COST 6.
 Y13 LK0 1.
 Y13 FK0 -1.
 Y14 COST 6.
 Y14 LK0 1.
 Y14 FK0 5.
 Y15 COST 3.
 Y15 LK0 1.
 Y15 FK0 1.
 Y16 COST 5.
 Y16 LK0 0.
 Y16 FK0 -1.
 Y17 COST 7.
 Y17 LK0 1.
 Y17 FK0 -4.
 Y18 COST 0.
 Y18 LK0 1.
 Y18 FK0 4.
 Y19 COST 7.
 Y19 LK0 1.
 Y19 FK0 -4.
 Y20 COST 9.
 Y20 LK0 0.
 Y20 FK0 -4.
 Y21 COST 2.
 Y21 LK0 0.
 Y21 FK0 -1.
 Y22 COST 5.
 Y22 LK0 1.
 Y22 FK0 2.
 Y23 COST 7.
 Y23 LK0 0.
 Y23 FK0 0.
 Y24 COST 4.
 Y24 LK0 1.
 Y24 FK0 -5.
 Y25 COST 2.
 Y25 LK0 0.
 Y25 FK0 -1.
 Y26 COST 3.
 Y26 LK0 0.
 Y26 FK0 4.
 Y27 COST 0.
 Y27 LK0 1.
 Y27 FK0 1.
 Y28 COST 5.
 Y28 LK0 1.
 Y28 FK0 -2.
 Y29 COST 10.
 Y29 LK0 0.
 Y29 FK0 -5.
 Y30 COST 3.
 Y30 LK0 0.
 Y30 FK0 -5.
 Y31 COST 10.
 Y31 LK0 0.
 Y31 FK0 1.
 Y32 COST 1.
 Y32 LK0 1.
 Y32 FK0 -4.
 Y33 COST 10.
 Y33 LK0 0.
 Y33 FK0 2.
 Y34 COST 7.
 Y34 LK0 0.
 Y34 FK0 1.
 Y35 COST 6.
 Y35 LK0 0.
 Y35 FK0 5.
 Y36 COST 7.
 Y36 LK0 0.
 Y36 FK0 -1.
 Y37 COST 7.
 Y37 LK0 0.
 Y37 FK0 1.
 Y38 COST 5.
 Y38 LK0 1.
 Y38 FK0 0.
 Y39 COST 2.
 Y39 LK0 0.
 Y39 FK0 3.
 Y40 COST 6.
 Y40 LK0 1.
 Y40 FK0 3.
 Y41 COST 5.
 Y41 LK0 1.
 Y41 FK0 -2.
 Y42 COST 8.
 Y42 LK0 0.
 Y42 FK0 -5.
 Y43 COST 2.
 Y43 LK0 0.
 Y43 FK0 -4.
 Y44 COST 0.
 Y44 LK0 0.
 Y44 FK0 0.
 Y45 COST 3.
 Y45 LK0 0.
 Y45 FK0 -4.
 Y46 COST 3.
 Y46 LK0 1.
 Y46 FK0 2.
 Y47 COST 0.
 Y47 LK0 1.
 Y47 FK0 -4.
 Y48 COST 1.
 Y48 LK0 1.
 Y48 FK0 5.
 Y49 COST 3.
 Y49 LK0 0.
 Y49 FK0 0.
RHS
 RHS LK0 12.
 RHS FK0 1.
BOUNDS
 UI BOUND	X0	1.
 LI BOUND	X0	0.
 UI BOUND	X1	1.
 LI BOUND	X1	0.
 UI BOUND	X2	1.
 LI BOUND	X2	0.
 UI BOUND	X3	1.
 LI BOUND	X3	0.
 UI BOUND	X4	1.
 LI BOUND	X4	0.
 UI BOUND	X5	1.
 LI BOUND	X5	0.
 UI BOUND	X6	1.
 LI BOUND	X6	0.
 UI BOUND	X7	1.
 LI BOUND	X7	0.
 UI BOUND	X8	1.
 LI BOUND	X8	0.
 UI BOUND	X9	1.
 LI BOUND	X9	0.
 UI BOUND	X10	1.
 LI BOUND	X10	0.
 UI BOUND	X11	1.
 LI BOUND	X11	0.
 UI BOUND	X12	1.
 LI BOUND	X12	0.
 UI BOUND	X13	1.
 LI BOUND	X13	0.
 UI BOUND	X14	1.
 LI BOUND	X14	0.
 UI BOUND	X15	1.
 LI BOUND	X15	0.
 UI BOUND	X16	1.
 LI BOUND	X16	0.
 UI BOUND	X17	1.
 LI BOUND	X17	0.
 UI BOUND	X18	1.
 LI BOUND	X18	0.
 UI BOUND	X19	1.
 LI BOUND	X19	0.
 UI BOUND	X20	1.
 LI BOUND	X20	0.
 UI BOUND	X21	1.
 LI BOUND	X21	0.
 UI BOUND	X22	1.
 LI BOUND	X22	0.
 UI BOUND	X23	1.
 LI BOUND	X23	0.
 UI BOUND	X24	1.
 LI BOUND	X24	0.
 UI BOUND	X25	1.
 LI BOUND	X25	0.
 UI BOUND	X26	1.
 LI BOUND	X26	0.
 UI BOUND	X27	1.
 LI BOUND	X27	0.
 UI BOUND	X28	1.
 LI BOUND	X28	0.
 UI BOUND	X29	1.
 LI BOUND	X29	0.
 UI BOUND	X30	1.
 LI BOUND	X30	0.
 UI BOUND	X31	1.
 LI BOUND	X31	0.
 UI BOUND	X32	1.
 LI BOUND	X32	0.
 UI BOUND	X33	1.
 LI BOUND	X33	0.
 UI BOUND	X34	1.
 LI BOUND	X34	0.
 UI BOUND	X35	1.
 LI BOUND	X35	0.
 UI BOUND	X36	1.
 LI BOUND	X36	0.
 UI BOUND	X37	1.
 LI BOUND	X37	0.
 UI BOUND	X38	1.
 LI BOUND	X38	0.
 UI BOUND	X39	1.
 LI BOUND	X39	0.
 UI BOUND	X40	1.
 LI BOUND	X40	0.
 UI BOUND	X41	1.
 LI BOUND	X41	0.
 UI BOUND	X42	1.
 LI BOUND	X42	0.
 UI BOUND	X43	1.
 LI BOUND	X43	0.
 UI BOUND	X44	1.
 LI BOUND	X44	0.
 UI BOUND	X45	1.
 LI BOUND	X45	0.
 UI BOUND	X46	1.
 LI BOUND	X46	0.
 UI BOUND	X47	1.
 LI BOUND	X47	0.
 UI BOUND	X48	1.
 LI BOUND	X48	0.
 UI BOUND	X49	1.
 LI BOUND	X49	0.
 UI BOUND	Y0	1.
 LI BOUND	Y0	0.
 UI BOUND	Y1	1.
 LI BOUND	Y1	0.
 UI BOUND	Y2	1.
 LI BOUND	Y2	0.
 UI BOUND	Y3	1.
 LI BOUND	Y3	0.
 UI BOUND	Y4	1.
 LI BOUND	Y4	0.
 UI BOUND	Y5	1.
 LI BOUND	Y5	0.
 UI BOUND	Y6	1.
 LI BOUND	Y6	0.
 UI BOUND	Y7	1.
 LI BOUND	Y7	0.
 UI BOUND	Y8	1.
 LI BOUND	Y8	0.
 UI BOUND	Y9	1.
 LI BOUND	Y9	0.
 UI BOUND	Y10	1.
 LI BOUND	Y10	0.
 UI BOUND	Y11	1.
 LI BOUND	Y11	0.
 UI BOUND	Y12	1.
 LI BOUND	Y12	0.
 UI BOUND	Y13	1.
 LI BOUND	Y13	0.
 UI BOUND	Y14	1.
 LI BOUND	Y14	0.
 UI BOUND	Y15	1.
 LI BOUND	Y15	0.
 UI BOUND	Y16	1.
 LI BOUND	Y16	0.
 UI BOUND	Y17	1.
 LI BOUND	Y17	0.
 UI BOUND	Y18	1.
 LI BOUND	Y18	0.
 UI BOUND	Y19	1.
 LI BOUND	Y19	0.
 UI BOUND	Y20	1.
 LI BOUND	Y20	0.
 UI BOUND	Y21	1.
 LI BOUND	Y21	0.
 UI BOUND	Y22	1.
 LI BOUND	Y22	0.
 UI BOUND	Y23	1.
 LI BOUND	Y23	0.
 UI BOUND	Y24	1.
 LI BOUND	Y24	0.
 UI BOUND	Y25	1.
 LI BOUND	Y25	0.
 UI BOUND	Y26	1.
 LI BOUND	Y26	0.
 UI BOUND	Y27	1.
 LI BOUND	Y27	0.
 UI BOUND	Y28	1.
 LI BOUND	Y28	0.
 UI BOUND	Y29	1.
 LI BOUND	Y29	0.
 UI BOUND	Y30	1.
 LI BOUND	Y30	0.
 UI BOUND	Y31	1.
 LI BOUND	Y31	0.
 UI BOUND	Y32	1.
 LI BOUND	Y32	0.
 UI BOUND	Y33	1.
 LI BOUND	Y33	0.
 UI BOUND	Y34	1.
 LI BOUND	Y34	0.
 UI BOUND	Y35	1.
 LI BOUND	Y35	0.
 UI BOUND	Y36	1.
 LI BOUND	Y36	0.
 UI BOUND	Y37	1.
 LI BOUND	Y37	0.
 UI BOUND	Y38	1.
 LI BOUND	Y38	0.
 UI BOUND	Y39	1.
 LI BOUND	Y39	0.
 UI BOUND	Y40	1.
 LI BOUND	Y40	0.
 UI BOUND	Y41	1.
 LI BOUND	Y41	0.
 UI BOUND	Y42	1.
 LI BOUND	Y42	0.
 UI BOUND	Y43	1.
 LI BOUND	Y43	0.
 UI BOUND	Y44	1.
 LI BOUND	Y44	0.
 UI BOUND	Y45	1.
 LI BOUND	Y45	0.
 UI BOUND	Y46	1.
 LI BOUND	Y46	0.
 UI BOUND	Y47	1.
 LI BOUND	Y47	0.
 UI BOUND	Y48	1.
 LI BOUND	Y48	0.
 UI BOUND	Y49	1.
 LI BOUND	Y49	0.
ENDATA
